# Objective value = 95602
x66 0
x67 0
x68 1
x69 0
x70 1
x71 1
x72 1
x73 0
x74 0
x75 0
x76 1
x77 0
x78 0
x79 0
x80 1
x81 0
x82 1
x83 1
x84 1
x85 0
x86 0
x87 0
x88 1
x89 1
x90 1
x91 0
x92 0
x93 1
x94 0
x95 1
x96 1
x97 1
x98 0
x99 0
x100 1
x101 1
x102 0
x103 1
x104 1
x105 1
x106 0
x107 0
x108 1
x109 1
x110 1
x111 0
x112 1
x113 1
x114 1
x115 0
x116 0
x117 1
x118 1
x119 1
x120 1
x121 1
x122 0
x123 0
x124 0
x125 1
x126 1
x127 0
x128 0
x129 0
x130 0
x131 0
x132 0
x133 1
x134 1
x135 1
x136 0
x137 0
x138 1
x139 1
x140 1
x141 1
x142 1
x143 0
x144 0
x145 1
x146 1
x147 1
x148 0
x149 0
x150 1
x151 1
x152 1
x153 1
x154 1
x155 0
x156 1
x157 1
x158 0
x159 0
x160 0
x161 1
x162 1
x163 0
x164 0
x165 0
x166 0
x167 0
x168 1
x169 0
x170 0
x171 0
x172 1
x173 1
x174 1
x175 0
x176 0
x177 1
x178 1
x179 1
x180 1
x181 1
x182 0
x183 1
x184 1
x185 0
x186 0
x187 1
x188 1
x189 1
x190 0
x191 0
x192 1
x193 1
x194 1
x195 1
x196 1
x197 0
x198 1
x199 1
x200 0
x201 1
x202 0
x203 1
x204 1
x205 1
x206 0
x207 1
x208 1
x209 1
x210 0
x211 0
x212 0
x213 1
x214 0
x215 1
x216 0
x217 0
x218 1
x219 1
x220 1
x221 0
x222 0
x223 1
x224 1
x225 0
x226 0
x227 1
x228 1
x229 1
x230 0
x231 1
x232 1
x233 1
x234 0
x235 1
x236 0
x237 0
x238 1
x239 1
x240 1
x241 1
x242 1
x243 1
x244 0
x245 1
x246 1
x247 0
x248 0
x249 1
x250 1
x251 1
x252 1
x253 0
x254 1
x255 0
x256 1
x257 1
x258 1
x259 1
x260 1
x261 0
x262 0
x263 0
x264 1
x265 0
x266 0
x267 1
x268 0
x269 0
x270 0
x271 0
x272 0
x273 0
x274 1
x275 1
x276 1
x277 1
x278 1
x279 1
x280 0
x281 1
x282 1
x283 1
x284 1
x285 0
x286 0
x287 1
x288 0
x289 1
x290 1
x291 0
x292 1
x293 1
x294 0
x295 1
x296 1
x297 1
x298 1
x299 0
x300 1
x301 0
x302 1
x303 1
x304 1
x305 1
x306 0
x307 1
x308 1
x309 0
x310 1
x311 1
x312 1
x313 1
x314 0
x315 1
x316 1
x317 0
x318 1
x319 1
x320 1
x321 1
x322 0
x323 1
x324 1
x325 0
x326 1
x327 1
x328 1
x329 1
x330 0
x331 1
x332 1
x333 1
x334 1
x335 1
x336 0
x337 0
x338 0
x339 1
x340 0
x341 0
x342 1
x343 0
x344 0
x345 0
x346 0
x347 1
x348 0
x349 0
x350 0
x351 0
x352 1
x353 0
x354 1
x355 0
x356 1
x357 0
x358 0
x359 0
x360 1
x361 0
x362 0
x363 0
x364 0
x365 1
x366 0
x367 0
x368 0
x369 0
x370 1
x371 0
x372 1
x373 1
x374 1
x375 0
x376 1
x377 1
x378 1
x379 0
x380 1
x381 1
x382 1
x383 1
x384 0
x385 1
x386 1
x387 1
x388 1
x389 0
x390 0
x391 0
x392 1
x393 1
x394 1
x395 0
x396 1
x397 1
x398 1
x399 0
x400 1
x401 1
x402 1
x403 1
x404 0
x405 1
x406 1
x407 1
x408 1
x409 0
x410 0
x411 1
x412 0
x413 0
x414 1
x415 1
x416 0
x417 1
x418 1
x419 1
x420 0
x421 1
x422 1
x423 1
x424 1
x425 0
x426 1
x427 1
x428 1
x429 1
x430 0
x431 0
x432 1
x433 1
x434 1
x435 0
x436 0
x437 0
x438 1
x439 1
x440 0
x441 1
x442 0
x443 0
x444 0
x445 0
x446 1
x447 1
x448 1
x449 0
x450 1
x451 1
x452 0
x453 1
x454 1
x455 1
x456 0
x457 0
x458 1
x459 1
x460 1
x461 0
x462 1
x463 1
x464 0
x465 1
x466 1
x467 0
x468 0
x469 1
x470 0
x471 1
x472 1
x473 1
x474 0
x475 1
x476 1
x477 0
x478 1
x479 1
x480 1
x481 0
x482 1
x483 1
x484 0
x485 1
x486 0
x487 1
x488 1
x489 1
x490 1
x491 1
x492 1
x493 0
x494 1
x495 0
x496 1
x497 1
x498 1
x499 0
x500 1
x501 0
x502 1
x503 1
x504 1
x505 0
x506 1
x507 1
x508 0
x509 1
x510 0
x511 1
x512 1
x513 1
x514 1
x515 0
x516 1
x517 0
x518 1
x519 1
x520 1
x521 1
x522 1
x523 1
x524 0
x525 1
x526 0
x527 1
x528 1
x529 1
x530 1
x531 1
x532 1
x533 1
x534 1
x535 0
x536 0
x537 0
x538 0
x539 0
x540 0
x541 1
x542 0
x543 1
x544 0
x545 0
x546 0
x547 0
x548 0
x549 0
x550 0
x551 1
x552 1
x553 0
x554 1
x555 1
x556 1
x557 1
x558 1
x559 0
x560 0
x561 0
x562 1
x563 1
x564 1
x565 1
x566 1
x567 1
x568 0
x569 1
x570 0
x571 0
x572 1
x573 0
x574 1
x575 0
x576 0
x577 0
x578 1
x579 0
x580 1
x581 0
x582 0
x583 0
x584 0
x585 0
x586 0
x587 1
x588 0
x589 0
x590 1
x591 1
x592 0
x593 1
x594 1
x595 1
x596 1
x597 1
x598 0
x599 1
x600 0
x601 1
x602 1
x603 1
x604 1
x605 1
x606 1
x607 0
x608 1
x609 0
x610 0
x611 1
x612 1
x613 0
x614 1
x615 1
x616 1
x617 1
x618 1
x619 0
x620 1
x621 0
x622 1
x623 1
x624 1
x625 1
x626 1
x627 1
x628 0
x629 1
x630 0
x631 1
x632 0
x633 1
x634 1
x635 0
x636 1
x637 1
x638 1
x639 0
x640 1
x641 1
x642 1
x643 0
x644 1
x645 1
x646 1
x647 1
x648 1
x649 1
x650 0
x651 1
x652 0
x653 1
x654 1
x655 0
x656 1
x657 1
x658 0
x659 1
x660 1
x661 1
x662 0
x663 1
x664 1
x665 1
x666 0
x667 1
x668 1
x669 1
x670 1
x671 1
x672 1
x673 0
x674 1
x675 0
x676 1
x677 1
x678 1
x679 1
x680 1
x681 0
x682 1
x683 0
x684 0
x685 0
x686 1
x687 0
x688 0
x689 0
x690 1
x691 0
x692 0
x693 0
x694 0
x695 0
x696 0
x697 1
x698 0
x699 1
x700 0
x701 0
x702 0
x703 0
x704 0
x705 1
x706 1
x707 0
x708 1
x709 1
x710 0
x711 0
x712 1
x713 1
x714 1
x715 0
x716 1
x717 1
x718 1
x719 1
x720 1
x721 1
x722 0
x723 1
x724 0
x725 1
x726 1
x727 1
x728 1
x729 0
x730 0
x731 1
x732 1
x733 1
x734 0
x735 0
x736 1
x737 0
x738 1
x739 1
x740 1
x741 0
x742 1
x743 1
x744 1
x745 1
x746 1
x747 0
x748 1
x749 1
x750 1
x751 0
x752 1
x753 1
x754 0
x755 1
x756 1
x757 1
x758 0
x759 1
x760 1
x761 1
x762 0
x763 1
x764 1
x765 1
x766 0
x767 0
x768 0
x769 1
x770 0
x771 0
x772 1
x773 0
x774 0
x775 1
x776 1
x777 0
x778 0
x779 0
x780 0
x781 1
x782 0
x783 0
x784 0
x785 1
x786 1
x787 1
x788 0
x789 1
x790 1
x791 0
x792 1
x793 1
x794 1
x795 0
x796 1
x797 1
x798 1
x799 1
x800 1
x801 1
x802 1
x803 0
x804 0
x805 1
x806 0
x807 1
x808 1
x809 1
x810 1
x811 1
x812 1
x813 0
x814 1
x815 1
x816 1
x817 1
x818 0
x819 1
x820 1
x821 1
x822 1
x823 0
x824 1
x825 1
x826 0
x827 1
x828 0
x829 0
x830 0
x831 1
x832 0
x833 0
x834 1
x835 0
x836 0
x837 0
x838 0
x839 1
x840 1
x841 0
x842 0
x843 0
x844 1
x845 0
x846 0
x847 0
x848 1
x849 0
x850 1
x851 1
x852 1
x853 1
x854 1
x855 1
x856 0
x857 1
x858 1
x859 1
x860 1
x861 0
x862 1
x863 0
x864 1
x865 1
x866 0
x867 1
x868 1
x869 0
x870 0
x871 0
x872 0
x873 1
x874 1
x875 1
x876 1
x877 1
x878 1
x879 0
x880 1
x881 1
x882 1
x883 1
x884 0
x885 1
x886 1
x887 1
x888 1
x889 0
x890 1
x891 1
x892 0
x893 1
x894 1
x895 0
x896 0
x897 1
x898 0
x899 0
x900 0
x901 0
x902 0
x903 1
x904 1
x905 1
x906 0
x907 0
x908 1
x909 0
x910 0
x911 0
x912 0
x913 1
x914 0
x915 0
x916 1
x917 0
x918 0
x919 0
x920 1
x921 1
x922 0
x923 1
x924 0
x925 1
x926 1
x927 1
x928 0
x929 1
x930 1
x931 1
x932 1
x933 0
x934 1
x935 1
x936 1
x937 1
x938 0
x939 1
x940 1
x941 0
x942 1
x943 1
x944 0
x945 0
x946 1
x947 1
x948 0
x949 1
x950 1
x951 1
x952 1
x953 1
x954 0
x955 1
x956 1
x957 1
x958 1
x959 0
x960 1
x961 1
x962 1
x963 1
x964 0
x965 1
x966 1
x967 0
x968 1
x969 1
x970 0
x971 1
x972 0
x973 1
x974 1
x975 0
x976 1
x977 1
x978 1
x979 1
x980 1
x981 0
x982 1
x983 1
x984 0
x985 1
x986 0
x987 1
x988 1
x989 1
x990 1
x991 0
x992 1
x993 1
x994 0
x995 1
x996 1
x997 0
x998 1
x999 1
x1000 0
x1001 1
x1002 1
x1003 0
x1004 1
x1005 1
x1006 1
x1007 0
x1008 1
x1009 1
x1010 1
x1011 0
x1012 1
x1013 1
x1014 1
x1015 0
x1016 1
x1017 1
x1018 1
x1019 0
x1020 1
x1021 1
x1022 0
x1023 1
x1024 1
x1025 0
x1026 1
x1027 1
x1028 1
x1029 0
x1030 1
x1031 1
x1032 0
x1033 1
x1034 1
x1035 1
x1036 0
x1037 1
x1038 1
x1039 1
x1040 1
x1041 1
x1042 1
x1043 1
x1044 0
x1045 1
x1046 1
x1047 1
x1048 0
x1049 1
x1050 1
x1051 0
x1052 1
x1053 1
x1054 0
x1055 1
x1056 1
x1057 1
x1058 1
x1059 0
x1060 0
x1061 1
x1062 0
x1063 1
x1064 1
x1065 1
x1066 0
x1067 1
x1068 1
x1069 1
x1070 1
x1071 1
x1072 1
x1073 1
x1074 0
x1075 1
x1076 1
x1077 1
x1078 0
x1079 1
x1080 1
x1081 0
x1082 1
x1083 1
x1084 0
x1085 1
x1086 1
x1087 1
x1088 1
x1089 1
x1090 1
x1091 0
x1092 0
x1093 1
x1094 0
x1095 0
x1096 1
x1097 1
x1098 0
x1099 0
x1100 0
x1101 0
x1102 1
x1103 0
x1104 0
x1105 1
x1106 0
x1107 0
x1108 0
x1109 1
x1110 0
x1111 0
x1112 1
x1113 0
x1114 0
x1115 1
x1116 0
x1117 0
x1118 0
x1119 0
x1120 0
x1121 0
x1 1
x2 0
x3 0
x4 0
x5 1
x6 1
x7 0
x8 0
x9 0
x10 0
x11 0
x12 1
x13 0
x14 0
x15 1
x16 0
x17 0
x18 0
x19 1
x20 0
x21 0
x22 0
x23 0
x24 1
x25 0
x26 0
x27 0
x28 0
x29 1
x30 1
x31 0
x32 0
x33 0
x34 1
x35 0
x36 0
x37 0
x38 0
x39 0
x40 0
x41 1
x42 0
x43 1
x44 0
x45 0
x46 0
x47 0
x48 1
x49 0
x50 0
x51 0
x52 1
x53 0
x54 0
x55 1
x56 0
x57 0
x58 1
x59 0
x60 0
x61 0
x62 0
x63 0
x64 0
x65 1
